2
1000 4
45
150 1 2
151 1 2
152 1 2
153 1 4
154 1 3
155 1 1
156 1 1
157 1 2
158 1 2
159 1 2
160 1 3
161 1 2
162 1 1
163 1 4
164 1 2
165 1 1
166 1 3
167 1 2
168 1 4
169 1 2
170 1 2
171 1 3
172 1 1
173 1 5
174 1 2
176 1 1
178 1 1
180 1 2
182 1 1
183 1 2
185 1 3
186 1 2
187 1 3
188 1 4
189 1 1
190 1 1
191 1 3
192 1 3
193 1 4
194 1 2
195 1 2
196 1 2
197 1 1
199 1 2
200 1 2
